(set-logic QF_S)
(declare-fun var0 () String)
(declare-fun var1 () String)
(declare-fun var2 () String)
(declare-fun var3 () String)
(declare-fun var4 () String)
(declare-fun var5 () String)
(declare-fun var6 () String)
(declare-fun var7 () String)
(declare-fun var8 () String)
(declare-fun var9 () String)
(declare-fun var10 () String)
(declare-fun var11 () String)
(declare-fun var12 () String)
(declare-fun var13 () String)
(declare-fun var14 () String)
(declare-fun var15 () String)
(declare-fun var16 () String)
(declare-fun var17 () String)
(declare-fun var18 () String)
(declare-fun var19 () String)
(declare-fun var20 () String)
(declare-fun var21 () String)
(declare-fun var22 () String)
(declare-fun var23 () String)
(declare-fun var24 () String)
(declare-fun var25 () String)
(declare-fun var26 () String)
(declare-fun var27 () String)
(declare-fun var28 () String)
(declare-fun var29 () String)
(declare-fun var30 () String)
(declare-fun var31 () String)
(declare-fun var32 () String)
(declare-fun var33 () String)
(declare-fun var34 () String)
(declare-fun var35 () String)
(declare-fun var36 () String)
(declare-fun var37 () String)
(declare-fun var38 () String)
(declare-fun var39 () String)
(declare-fun var40 () String)
(declare-fun var41 () String)
(declare-fun var42 () String)
(declare-fun var43 () String)
(declare-fun var44 () String)
(declare-fun var45 () String)
(declare-fun var46 () String)
(declare-fun var47 () String)
(declare-fun var48 () String)
(declare-fun var49 () String)
(declare-fun var50 () String)
(declare-fun var51 () String)
(declare-fun var52 () String)
(declare-fun var53 () String)
(declare-fun var54 () String)
(declare-fun var55 () String)
(declare-fun var56 () String)
(declare-fun var57 () String)
(declare-fun var58 () String)
(declare-fun var59 () String)
(declare-fun var60 () String)
(assert (= var0 (Concat var1 var2)))
(assert (= var2 (Concat var3 var4)))
(assert (= var4 (Concat var5 var6)))
(assert (= var6 (Concat var7 var8)))
(assert (= var8 (Concat var9 var10)))
(assert (= var10 (Concat var11 var12)))
(assert (= var12 (Concat var13 var14)))
(assert (= var14 (Concat var15 var16)))
(assert (= var16 (Concat var17 var18)))
(assert (= var18 (Concat var19 var20)))
(assert (= var20 (Concat var21 var22)))
(assert (= var22 (Concat var23 var24)))
(assert (= var24 (Concat var25 var26)))
(assert (= var26 (Concat var27 var28)))
(assert (= var28 (Concat var29 var30)))
(assert (= var30 (Concat var31 var32)))
(assert (= var32 (Concat var33 var34)))
(assert (= var34 (Concat var35 var36)))
(assert (= var36 (Concat var37 var38)))
(assert (= var38 (Concat var39 var40)))
(assert (= var40 (Concat var41 var42)))
(assert (= var42 (Concat var43 var44)))
(assert (= var44 (Concat var45 var46)))
(assert (= var46 (Concat var47 var48)))
(assert (= var48 (Concat var49 var50)))
(assert (= var50 (Concat var51 var52)))
(assert (= var52 (Concat var53 var54)))
(assert (= var54 (Concat var55 var56)))
(assert (= var56 (Concat var57 var58)))
(assert (= var58 (Concat var59 var60)))
(assert (= var0 "solution"))
(assert (= "g" (CharAt var51 897)))
(assert (= "V" (CharAt var1 415)))
(assert (= "e" (CharAt var22 89)))
(assert (= "7" (CharAt var6 36)))
(assert (= "T" (CharAt var21 448)))
(assert (= "#" (CharAt var51 138)))
(assert (= "C" (CharAt var47 568)))
(assert (= "f" (CharAt var56 943)))
(assert (= "A" (CharAt var28 241)))
(assert (= "P" (CharAt var14 494)))
(assert (= "S" (CharAt var47 471)))
(assert (= "6" (CharAt var34 278)))
(assert (= "<" (CharAt var4 152)))
(assert (= ")" (CharAt var23 696)))
(assert (= "A" (CharAt var29 562)))
(assert (= "L" (CharAt var10 944)))
(assert (= "B" (CharAt var36 128)))
(assert (= "a" (CharAt var5 28)))
(assert (= ">" (CharAt var20 732)))
(assert (= "m" (CharAt var13 584)))
(assert (= "g" (CharAt var8 233)))
(assert (= "?" (CharAt var18 213)))
(assert (= "{" (CharAt var41 979)))
(assert (= "{" (CharAt var10 842)))
(assert (= "8" (CharAt var43 42)))
(assert (= "}" (CharAt var40 738)))
(assert (= "l" (CharAt var24 678)))
(assert (= "G" (CharAt var17 379)))
(assert (= "1" (CharAt var23 428)))
(assert (= "Z" (CharAt var3 599)))
(assert (= "H" (CharAt var23 685)))
(assert (= "U" (CharAt var49 178)))
(assert (= "T" (CharAt var23 694)))
(assert (= "#" (CharAt var2 158)))
(assert (= "Z" (CharAt var36 276)))
(assert (= "G" (CharAt var14 930)))
(assert (= "D" (CharAt var20 293)))
(assert (= "=" (CharAt var54 87)))
(assert (= "C" (CharAt var27 597)))
(assert (= "!" (CharAt var2 343)))
(assert (= "T" (CharAt var49 447)))
(assert (= "X" (CharAt var21 535)))
(assert (= "N" (CharAt var10 398)))
(assert (= "d" (CharAt var43 770)))
(assert (= "k" (CharAt var51 690)))
(assert (= "]" (CharAt var18 548)))
(assert (= "X" (CharAt var51 531)))
(assert (= "x" (CharAt var50 964)))
(assert (= "F" (CharAt var25 356)))
(assert (= "Z" (CharAt var23 234)))
(assert (= "*" (CharAt var2 105)))
(assert (= "l" (CharAt var2 584)))
(assert (= ":" (CharAt var31 96)))
(assert (= "Q" (CharAt var15 841)))
(assert (= "`" (CharAt var43 913)))
(assert (= "G" (CharAt var46 572)))
(assert (= "J" (CharAt var41 683)))
(assert (= "4" (CharAt var17 204)))
(assert (= "^" (CharAt var44 242)))
(assert (= "4" (CharAt var31 436)))
(assert (= "%" (CharAt var39 786)))
(assert (= "B" (CharAt var7 915)))
(assert (= "h" (CharAt var30 948)))
(assert (= "^" (CharAt var0 385)))
(assert (= "G" (CharAt var41 672)))
(assert (= "Z" (CharAt var12 81)))
(assert (= "-" (CharAt var23 847)))
(assert (= "S" (CharAt var36 142)))
(assert (= "&" (CharAt var55 143)))
(assert (= "-" (CharAt var44 343)))
(assert (= "-" (CharAt var8 544)))
(assert (= "r" (CharAt var28 821)))
(assert (= "\\" (CharAt var47 872)))
(assert (= "*" (CharAt var57 206)))
(assert (= "e" (CharAt var7 756)))
(assert (= "9" (CharAt var60 21)))
(assert (= "I" (CharAt var56 301)))
(assert (= "8" (CharAt var46 700)))
(assert (= "M" (CharAt var38 973)))
(assert (= ")" (CharAt var8 889)))
(assert (= "O" (CharAt var5 158)))
(assert (= "k" (CharAt var27 668)))
(assert (= "I" (CharAt var7 368)))
(assert (= "8" (CharAt var32 311)))
(assert (= "'" (CharAt var20 467)))
(assert (= "]" (CharAt var24 170)))
(assert (= "]" (CharAt var36 764)))
(assert (= "^" (CharAt var8 662)))
(assert (= "^" (CharAt var51 814)))
(assert (= "\\" (CharAt var28 109)))
(assert (= "<" (CharAt var54 192)))
(assert (= "." (CharAt var53 200)))
(assert (= "D" (CharAt var32 123)))
(assert (= "5" (CharAt var0 707)))
(assert (= "U" (CharAt var45 798)))
(assert (= "k" (CharAt var54 358)))
(assert (= "&" (CharAt var56 53)))
(assert (= "N" (CharAt var58 523)))
(assert (= "8" (CharAt var44 683)))
(assert (= ";" (CharAt var5 2)))
(assert (= "g" (CharAt var30 889)))
(assert (= "6" (CharAt var24 792)))
(assert (= "M" (CharAt var24 518)))
(assert (= "+" (CharAt var24 103)))
(assert (= "\"" (CharAt var33 371)))
(assert (= "Y" (CharAt var26 507)))
(assert (= "t" (CharAt var27 670)))
(assert (= "\"" (CharAt var27 882)))
(assert (= "x" (CharAt var6 801)))
(assert (= "*" (CharAt var25 755)))
(assert (= "-" (CharAt var11 64)))
(assert (= "\\" (CharAt var18 982)))
(assert (= "4" (CharAt var2 305)))
(assert (= "[" (CharAt var37 725)))
(assert (= "n" (CharAt var29 605)))
(assert (= "k" (CharAt var59 716)))
(assert (= ";" (CharAt var59 437)))
(assert (= "@" (CharAt var50 60)))
(assert (= "2" (CharAt var11 457)))
(assert (= "Q" (CharAt var24 123)))
(assert (= "c" (CharAt var3 412)))
(assert (= "<" (CharAt var14 17)))
(assert (= "U" (CharAt var41 171)))
(assert (= "A" (CharAt var38 852)))
(assert (= "," (CharAt var6 500)))
(assert (= "]" (CharAt var23 932)))
(assert (= "#" (CharAt var35 385)))
(assert (= "b" (CharAt var56 686)))
(assert (= "y" (CharAt var6 605)))
(assert (= "j" (CharAt var39 732)))
(assert (= "^" (CharAt var13 320)))
(assert (= "~" (CharAt var45 206)))
(assert (= "h" (CharAt var20 6)))
(assert (= ":" (CharAt var3 0)))
(assert (= "m" (CharAt var31 630)))
(assert (= "K" (CharAt var39 980)))
(assert (= "x" (CharAt var29 166)))
(assert (= ";" (CharAt var45 279)))
(assert (= "3" (CharAt var32 699)))
(assert (= "*" (CharAt var29 905)))
(assert (= "K" (CharAt var12 804)))
(assert (= "6" (CharAt var8 142)))
(assert (= "]" (CharAt var14 882)))
(assert (= "@" (CharAt var33 358)))
(assert (= "1" (CharAt var24 767)))
(assert (= "W" (CharAt var24 8)))
(assert (= "w" (CharAt var32 365)))
(assert (= "|" (CharAt var43 996)))
(assert (= "Z" (CharAt var37 384)))
(assert (= "@" (CharAt var50 543)))
(assert (= "N" (CharAt var36 415)))
(assert (= "`" (CharAt var13 645)))
(assert (= "W" (CharAt var47 74)))
(assert (= "3" (CharAt var58 448)))
(assert (= "," (CharAt var40 53)))
(assert (= "Q" (CharAt var50 766)))
(assert (= "." (CharAt var30 809)))
(assert (= "p" (CharAt var45 697)))
(assert (= "l" (CharAt var16 244)))
(assert (= "." (CharAt var7 883)))
(assert (= "|" (CharAt var13 952)))
(assert (= "," (CharAt var14 468)))
(assert (= "Q" (CharAt var59 139)))
(assert (= "u" (CharAt var52 646)))
(assert (= "J" (CharAt var24 589)))
(assert (= "G" (CharAt var53 182)))
(assert (= "3" (CharAt var9 138)))
(assert (= "P" (CharAt var17 649)))
(assert (= "(" (CharAt var23 139)))
(assert (= "q" (CharAt var39 127)))
(assert (= "!" (CharAt var37 803)))
(assert (= "\\" (CharAt var38 164)))
(assert (= "t" (CharAt var47 46)))
(assert (= "F" (CharAt var23 378)))
(assert (= "p" (CharAt var20 236)))
(assert (= "`" (CharAt var39 150)))
(assert (= "]" (CharAt var34 906)))
(assert (= "q" (CharAt var25 888)))
(assert (= "X" (CharAt var37 577)))
(assert (= "%" (CharAt var36 342)))
(assert (= "*" (CharAt var47 761)))
(assert (= "2" (CharAt var20 356)))
(assert (= "c" (CharAt var30 714)))
(assert (= "e" (CharAt var25 968)))
(assert (= "M" (CharAt var40 85)))
(assert (= "h" (CharAt var46 709)))
(assert (= "=" (CharAt var7 905)))
(assert (= "2" (CharAt var36 945)))
(assert (= "-" (CharAt var44 739)))
(assert (= "[" (CharAt var27 188)))
(assert (= "9" (CharAt var50 6)))
(assert (= "M" (CharAt var59 318)))
(assert (= "P" (CharAt var23 317)))
(assert (= "b" (CharAt var29 409)))
(assert (= "W" (CharAt var16 187)))
(assert (= "\\" (CharAt var1 646)))
(assert (= "%" (CharAt var52 710)))
(assert (= "|" (CharAt var9 396)))
(assert (= "o" (CharAt var56 236)))
(assert (= ":" (CharAt var25 421)))
(assert (= "]" (CharAt var57 581)))
(assert (= "$" (CharAt var20 100)))
(assert (= "5" (CharAt var37 877)))
(assert (= "u" (CharAt var21 923)))
(assert (= "w" (CharAt var22 764)))
(assert (= "D" (CharAt var4 723)))
(assert (= "2" (CharAt var45 139)))
(assert (= "\"" (CharAt var19 851)))
(assert (= "E" (CharAt var6 179)))
(assert (= "w" (CharAt var32 966)))
(assert (= "~" (CharAt var55 655)))
(assert (= "H" (CharAt var31 735)))
(assert (= "v" (CharAt var10 738)))
(assert (= "3" (CharAt var42 196)))
(assert (= "G" (CharAt var29 948)))
(assert (= "d" (CharAt var7 853)))
(assert (= "}" (CharAt var38 706)))
(assert (= "K" (CharAt var8 389)))
(assert (= "o" (CharAt var46 484)))
(assert (= "e" (CharAt var43 515)))
(assert (= "T" (CharAt var42 971)))
(assert (= "r" (CharAt var23 431)))
(assert (= ":" (CharAt var23 152)))
(assert (= "q" (CharAt var43 834)))
(assert (= "`" (CharAt var13 333)))
(assert (= "*" (CharAt var40 275)))
(assert (= "K" (CharAt var40 691)))
(assert (= "." (CharAt var37 768)))
(assert (= "Y" (CharAt var47 335)))
(assert (= "y" (CharAt var58 23)))
(assert (= "1" (CharAt var29 423)))
(assert (= "_" (CharAt var27 85)))
(assert (= "\"" (CharAt var22 442)))
(assert (= "~" (CharAt var53 451)))
(assert (= "v" (CharAt var45 830)))
(assert (= "{" (CharAt var4 689)))
(assert (= "<" (CharAt var8 550)))
(assert (= "r" (CharAt var13 205)))
(assert (= "m" (CharAt var46 900)))
(assert (= "1" (CharAt var6 694)))
(assert (= "c" (CharAt var44 803)))
(assert (= "6" (CharAt var46 979)))
(assert (= "Y" (CharAt var0 147)))
(assert (= "G" (CharAt var40 312)))
(assert (= "." (CharAt var60 920)))
(assert (= "/" (CharAt var50 511)))
(assert (= "$" (CharAt var52 113)))
(assert (= "&" (CharAt var54 910)))
(assert (= "/" (CharAt var25 384)))
(assert (= "-" (CharAt var8 989)))
(assert (= "-" (CharAt var60 305)))
(assert (= "v" (CharAt var28 16)))
(assert (= "j" (CharAt var48 350)))
(assert (= "e" (CharAt var11 665)))
(assert (= "L" (CharAt var29 721)))
(assert (= "W" (CharAt var9 908)))
(assert (= "*" (CharAt var48 184)))
(assert (= "t" (CharAt var51 642)))
(assert (= "U" (CharAt var41 411)))
(assert (= "]" (CharAt var29 887)))
(assert (= "H" (CharAt var31 845)))
(assert (= "v" (CharAt var24 446)))
(assert (= "2" (CharAt var7 969)))
(assert (= "K" (CharAt var28 307)))
(assert (= ")" (CharAt var28 101)))
(assert (= "S" (CharAt var29 510)))
(assert (= "1" (CharAt var2 652)))
(assert (= "#" (CharAt var54 697)))
(assert (= ";" (CharAt var17 483)))
(assert (= "q" (CharAt var29 303)))
(assert (= "s" (CharAt var11 554)))
(assert (= "d" (CharAt var59 259)))
(assert (= "R" (CharAt var31 823)))
(assert (= "g" (CharAt var38 15)))
(assert (= ";" (CharAt var50 827)))
(assert (= "%" (CharAt var39 479)))
(assert (= "," (CharAt var7 135)))
(assert (= "}" (CharAt var4 623)))
(assert (= "l" (CharAt var15 235)))
(assert (= "T" (CharAt var17 522)))
(assert (= "{" (CharAt var3 905)))
(assert (= "6" (CharAt var49 5)))
(assert (= "Z" (CharAt var26 102)))
(assert (= "u" (CharAt var16 603)))
(assert (= "w" (CharAt var53 762)))
(assert (= "B" (CharAt var1 401)))
(assert (= "(" (CharAt var32 885)))
(assert (= "@" (CharAt var51 924)))
(assert (= "!" (CharAt var50 54)))
(assert (= "v" (CharAt var1 181)))
(assert (= "X" (CharAt var46 660)))
(assert (= "T" (CharAt var13 533)))
(assert (= "$" (CharAt var4 340)))
(assert (= "T" (CharAt var20 421)))
(assert (= "j" (CharAt var15 75)))
(assert (= "X" (CharAt var56 488)))
(assert (= "j" (CharAt var17 486)))
(assert (= "=" (CharAt var42 781)))
(assert (= "c" (CharAt var28 695)))
(assert (= "6" (CharAt var35 54)))
(assert (= "u" (CharAt var7 794)))
(assert (= "/" (CharAt var56 912)))
(assert (= "u" (CharAt var51 17)))
(assert (= "0" (CharAt var54 277)))
(assert (= "!" (CharAt var60 550)))
(assert (= "L" (CharAt var11 302)))
(assert (= "m" (CharAt var27 620)))
(assert (= "s" (CharAt var7 73)))
(assert (= "v" (CharAt var8 112)))
(assert (= "0" (CharAt var31 321)))
(assert (= "h" (CharAt var52 988)))
(assert (= "`" (CharAt var24 112)))
(assert (= "e" (CharAt var51 645)))
(assert (= "H" (CharAt var17 26)))
(assert (= "8" (CharAt var37 465)))
(assert (= "_" (CharAt var12 206)))
(assert (= "^" (CharAt var49 331)))
(assert (= "i" (CharAt var31 957)))
(assert (= "H" (CharAt var27 966)))
(assert (= "Q" (CharAt var14 296)))
(assert (= "2" (CharAt var11 801)))
(assert (= "h" (CharAt var28 299)))
(assert (= "t" (CharAt var1 526)))
(assert (= "w" (CharAt var21 56)))
(assert (= "4" (CharAt var24 210)))
(assert (= "J" (CharAt var2 805)))
(assert (= "i" (CharAt var36 215)))
(assert (= "e" (CharAt var42 54)))
(assert (= "|" (CharAt var42 981)))
(assert (= "^" (CharAt var6 337)))
(assert (= "e" (CharAt var58 764)))
(assert (= "p" (CharAt var21 962)))
(assert (= ":" (CharAt var13 642)))
(assert (= "x" (CharAt var23 788)))
(assert (= "_" (CharAt var6 583)))
(assert (= "A" (CharAt var34 689)))
(assert (= "p" (CharAt var36 644)))
(assert (= "L" (CharAt var4 802)))
(assert (= "C" (CharAt var41 842)))
(assert (= "9" (CharAt var24 684)))
(assert (= "G" (CharAt var49 263)))
(assert (= "%" (CharAt var36 552)))
(assert (= "}" (CharAt var34 44)))
(assert (= "8" (CharAt var14 22)))
(assert (= "{" (CharAt var20 568)))
(assert (= "{" (CharAt var26 484)))
(assert (= "W" (CharAt var12 158)))
(assert (= "@" (CharAt var40 179)))
(assert (= "V" (CharAt var3 977)))
(assert (= "U" (CharAt var2 749)))
(assert (= "0" (CharAt var43 769)))
(assert (= "U" (CharAt var51 979)))
(assert (= "W" (CharAt var29 382)))
(assert (= "N" (CharAt var45 48)))
(assert (= "g" (CharAt var5 708)))
(assert (= "}" (CharAt var54 121)))
(assert (= "X" (CharAt var19 29)))
(assert (= "|" (CharAt var56 869)))
(assert (= "N" (CharAt var59 774)))
(assert (= "g" (CharAt var26 592)))
(assert (= "h" (CharAt var1 263)))
(assert (= "]" (CharAt var21 743)))
(assert (= "-" (CharAt var49 521)))
(assert (= "i" (CharAt var60 92)))
(assert (= "#" (CharAt var5 138)))
(assert (= "!" (CharAt var40 423)))
(assert (= "M" (CharAt var6 297)))
(assert (= "|" (CharAt var43 256)))
(assert (= "%" (CharAt var48 218)))
(assert (= "~" (CharAt var3 764)))
(assert (= "^" (CharAt var51 287)))
(assert (= "W" (CharAt var25 302)))
(assert (= "s" (CharAt var38 892)))
(assert (= "s" (CharAt var29 659)))
(assert (= "'" (CharAt var10 455)))
(assert (= "T" (CharAt var0 586)))
(assert (= "~" (CharAt var23 401)))
(assert (= "~" (CharAt var15 433)))
(assert (= "o" (CharAt var27 460)))
(assert (= "0" (CharAt var16 770)))
(assert (= "9" (CharAt var29 816)))
(assert (= "|" (CharAt var16 151)))
(assert (= "S" (CharAt var24 130)))
(assert (= "*" (CharAt var2 323)))
(assert (= "r" (CharAt var30 950)))
(assert (= "j" (CharAt var23 71)))
(assert (= "," (CharAt var7 145)))
(assert (= "(" (CharAt var21 745)))
(assert (= "d" (CharAt var31 98)))
(assert (= "4" (CharAt var44 177)))
(assert (= "C" (CharAt var41 300)))
(assert (= "[" (CharAt var12 972)))
(assert (= "q" (CharAt var13 193)))
(assert (= "<" (CharAt var1 74)))
(assert (= "f" (CharAt var16 443)))
(assert (= "v" (CharAt var1 300)))
(assert (= "u" (CharAt var37 278)))
(assert (= "~" (CharAt var48 542)))
(assert (= "}" (CharAt var20 187)))
(assert (= "8" (CharAt var48 959)))
(assert (= "8" (CharAt var45 660)))
(assert (= "`" (CharAt var20 362)))
(assert (= "(" (CharAt var12 508)))
(assert (= "n" (CharAt var13 844)))
(assert (= "H" (CharAt var38 249)))
(assert (= "'" (CharAt var0 668)))
(assert (= "G" (CharAt var4 981)))
(assert (= "H" (CharAt var51 975)))
(assert (= "&" (CharAt var33 457)))
(assert (= "h" (CharAt var4 956)))
(assert (= "I" (CharAt var38 205)))
(assert (= "{" (CharAt var5 305)))
(assert (= "H" (CharAt var28 264)))
(assert (= "L" (CharAt var0 188)))
(assert (= "3" (CharAt var10 427)))
(assert (= "C" (CharAt var16 192)))
(assert (= "6" (CharAt var39 329)))
(assert (= "K" (CharAt var33 793)))
(assert (= "w" (CharAt var12 824)))
(assert (= "]" (CharAt var37 579)))
(assert (= "8" (CharAt var38 915)))
(assert (= "R" (CharAt var47 81)))
(assert (= "H" (CharAt var60 246)))
(assert (= "}" (CharAt var12 691)))
(assert (= "," (CharAt var52 593)))
(assert (= "A" (CharAt var55 99)))
(assert (= "\"" (CharAt var2 257)))
(assert (= "1" (CharAt var28 816)))
(assert (= "+" (CharAt var37 378)))
(assert (= "`" (CharAt var3 267)))
(assert (= "=" (CharAt var52 726)))
(assert (= ":" (CharAt var5 529)))
(assert (= "f" (CharAt var43 579)))
(assert (= "e" (CharAt var21 977)))
(assert (= "^" (CharAt var28 27)))
(assert (= "K" (CharAt var0 923)))
(assert (= "s" (CharAt var25 410)))
(assert (= "r" (CharAt var12 588)))
(assert (= "P" (CharAt var26 574)))
(assert (= "o" (CharAt var2 10)))
(assert (= "C" (CharAt var3 386)))
(assert (= "9" (CharAt var59 498)))
(assert (= "\"" (CharAt var21 576)))
(assert (= "L" (CharAt var32 155)))
(assert (= "m" (CharAt var25 885)))
(assert (= "3" (CharAt var60 856)))
(assert (= "c" (CharAt var26 727)))
(assert (= "W" (CharAt var2 103)))
(assert (= "k" (CharAt var13 168)))
(assert (= ")" (CharAt var51 519)))
(assert (= "%" (CharAt var53 934)))
(assert (= "v" (CharAt var20 466)))
(assert (= "w" (CharAt var37 254)))
(assert (= "x" (CharAt var7 885)))
(assert (= "S" (CharAt var22 775)))
(assert (= "k" (CharAt var39 671)))
(assert (= "#" (CharAt var14 7)))
(assert (= "." (CharAt var39 124)))
(assert (= "H" (CharAt var14 166)))
(assert (= "}" (CharAt var58 271)))
(assert (= "S" (CharAt var35 819)))
(assert (= "5" (CharAt var1 953)))
(assert (= "4" (CharAt var40 711)))
(assert (= "m" (CharAt var57 833)))
(assert (= "z" (CharAt var56 257)))
(assert (= "I" (CharAt var5 127)))
(assert (= "]" (CharAt var27 480)))
(assert (= "C" (CharAt var56 193)))
(assert (= "r" (CharAt var16 214)))
(assert (= "5" (CharAt var21 226)))
(assert (= "\"" (CharAt var1 47)))
(assert (= "r" (CharAt var30 908)))
(assert (= "j" (CharAt var28 500)))
(assert (= "p" (CharAt var23 511)))
(assert (= "X" (CharAt var27 353)))
(assert (= "3" (CharAt var18 271)))
(assert (= "}" (CharAt var4 934)))
(assert (= "?" (CharAt var41 113)))
(assert (= "_" (CharAt var36 275)))
(assert (= "0" (CharAt var5 125)))
(assert (= "^" (CharAt var40 491)))
(assert (= "e" (CharAt var52 406)))
(assert (= ";" (CharAt var58 51)))
(assert (= "_" (CharAt var52 176)))
(assert (= "7" (CharAt var26 895)))
(assert (= "&" (CharAt var3 264)))
(assert (= "4" (CharAt var24 629)))
(assert (= "^" (CharAt var47 745)))
(assert (= "E" (CharAt var36 587)))
(assert (= "1" (CharAt var1 801)))
(assert (= "(" (CharAt var25 592)))
(assert (= "@" (CharAt var6 94)))
(assert (= "A" (CharAt var48 860)))
(assert (= "*" (CharAt var10 377)))
(assert (= "-" (CharAt var31 359)))
(assert (= "3" (CharAt var17 162)))
(assert (= "g" (CharAt var19 451)))
(assert (= "S" (CharAt var22 627)))
(assert (= "V" (CharAt var58 341)))
(assert (= "?" (CharAt var46 280)))
(assert (= "Q" (CharAt var15 451)))
(assert (= "I" (CharAt var50 984)))
(assert (= "<" (CharAt var14 197)))
(assert (= "@" (CharAt var9 991)))
(assert (= "h" (CharAt var19 281)))
(assert (= "a" (CharAt var47 431)))
(assert (= "n" (CharAt var58 361)))
(assert (= "1" (CharAt var29 294)))
(assert (= "E" (CharAt var56 545)))
(assert (= "E" (CharAt var18 680)))
(assert (= "@" (CharAt var54 874)))
(assert (= "V" (CharAt var30 676)))
(assert (= "q" (CharAt var50 797)))
(assert (= ";" (CharAt var56 487)))
(assert (= "f" (CharAt var59 238)))
(assert (= "v" (CharAt var8 155)))
(assert (= "." (CharAt var48 473)))
(assert (= "v" (CharAt var11 783)))
(assert (= "y" (CharAt var20 142)))
(assert (= "}" (CharAt var14 463)))
(assert (= "d" (CharAt var54 470)))
(assert (= "l" (CharAt var44 929)))
(assert (= "*" (CharAt var46 830)))
(assert (= "d" (CharAt var12 931)))
(assert (= "F" (CharAt var9 782)))
(assert (= "p" (CharAt var25 239)))
(assert (= "P" (CharAt var53 826)))
(assert (= "U" (CharAt var18 245)))
(assert (= "_" (CharAt var40 91)))
(assert (= "N" (CharAt var12 244)))
(assert (= "J" (CharAt var0 247)))
(assert (= "j" (CharAt var37 616)))
(assert (= "[" (CharAt var42 533)))
(assert (= "S" (CharAt var29 158)))
(assert (= ":" (CharAt var51 858)))
(assert (= "P" (CharAt var47 69)))
(assert (= "J" (CharAt var23 535)))
(assert (= "^" (CharAt var12 984)))
(assert (= "@" (CharAt var42 332)))
(assert (= "o" (CharAt var58 253)))
(assert (= "O" (CharAt var58 340)))
(assert (= "E" (CharAt var14 371)))
(assert (= "&" (CharAt var47 848)))
(assert (= "5" (CharAt var24 638)))
(assert (= "a" (CharAt var20 803)))
(assert (= "Z" (CharAt var2 293)))
(assert (= "i" (CharAt var4 380)))
(assert (= "u" (CharAt var27 176)))
(assert (= "." (CharAt var8 918)))
(assert (= "L" (CharAt var36 606)))
(assert (= "h" (CharAt var11 43)))
(assert (= "." (CharAt var27 847)))
(assert (= "#" (CharAt var30 340)))
(assert (= "L" (CharAt var53 912)))
(assert (= "0" (CharAt var11 340)))
(assert (= "k" (CharAt var36 577)))
(assert (= "`" (CharAt var8 169)))
(assert (= ">" (CharAt var57 673)))
(assert (= "{" (CharAt var6 342)))
(assert (= "N" (CharAt var44 961)))
(assert (= "s" (CharAt var17 515)))
(assert (= "f" (CharAt var30 403)))
(assert (= "+" (CharAt var11 662)))
(assert (= ">" (CharAt var52 295)))
(assert (= "H" (CharAt var13 65)))
(assert (= "b" (CharAt var19 910)))
(assert (= "T" (CharAt var38 758)))
(assert (= "]" (CharAt var35 643)))
(assert (= "%" (CharAt var59 678)))
(assert (= "l" (CharAt var37 277)))
(assert (= "&" (CharAt var51 32)))
(assert (= "F" (CharAt var15 160)))
(assert (= "Y" (CharAt var49 918)))
(assert (= "}" (CharAt var39 889)))
(assert (= "|" (CharAt var14 540)))
(assert (= "`" (CharAt var3 123)))
(assert (= "A" (CharAt var31 584)))
(assert (= "9" (CharAt var58 972)))
(assert (= "h" (CharAt var54 719)))
(assert (= "Z" (CharAt var36 288)))
(assert (= "l" (CharAt var26 211)))
(assert (= "]" (CharAt var13 255)))
(assert (= ">" (CharAt var32 688)))
(assert (= "@" (CharAt var26 378)))
(assert (= "8" (CharAt var23 302)))
(assert (= "x" (CharAt var24 86)))
(assert (= "f" (CharAt var58 129)))
(assert (= "M" (CharAt var10 552)))
(assert (= "O" (CharAt var42 843)))
(assert (= "~" (CharAt var4 475)))
(assert (= "A" (CharAt var27 505)))
(assert (= "#" (CharAt var7 458)))
(assert (= "&" (CharAt var39 925)))
(assert (= "e" (CharAt var14 655)))
(assert (= ">" (CharAt var39 696)))
(assert (= "U" (CharAt var16 787)))
(assert (= ")" (CharAt var58 70)))
(assert (= "|" (CharAt var44 186)))
(assert (= "o" (CharAt var50 870)))
(assert (= "'" (CharAt var7 292)))
(assert (= "C" (CharAt var27 129)))
(assert (= "?" (CharAt var32 530)))
(assert (= "]" (CharAt var57 638)))
(assert (= "-" (CharAt var26 27)))
(assert (= "!" (CharAt var3 911)))
(assert (= "[" (CharAt var12 440)))
(assert (= "[" (CharAt var44 535)))
(assert (= "f" (CharAt var11 395)))
(assert (= "c" (CharAt var57 877)))
(assert (= "5" (CharAt var53 995)))
(assert (= "u" (CharAt var44 150)))
(assert (= "b" (CharAt var47 855)))
(assert (= "F" (CharAt var23 571)))
(assert (= "F" (CharAt var45 301)))
(assert (= "B" (CharAt var15 135)))
(assert (= "g" (CharAt var25 186)))
(assert (= "l" (CharAt var20 597)))
(assert (= "%" (CharAt var44 258)))
(assert (= "I" (CharAt var10 469)))
(assert (= "P" (CharAt var32 935)))
(assert (= "_" (CharAt var0 514)))
(assert (= "{" (CharAt var20 719)))
(assert (= "s" (CharAt var33 359)))
(assert (= "%" (CharAt var24 12)))
(assert (= "u" (CharAt var6 23)))
(assert (= "y" (CharAt var25 152)))
(assert (= "l" (CharAt var6 333)))
(assert (= "|" (CharAt var43 940)))
(assert (= "-" (CharAt var49 296)))
(assert (= "{" (CharAt var30 543)))
(assert (= "S" (CharAt var17 151)))
(assert (= ">" (CharAt var40 62)))
(assert (= "b" (CharAt var17 796)))
(assert (= "F" (CharAt var53 131)))
(assert (= "+" (CharAt var53 556)))
(assert (= "J" (CharAt var37 236)))
(assert (= "E" (CharAt var3 1000)))
(assert (= "N" (CharAt var40 353)))
(assert (= "`" (CharAt var29 34)))
(assert (= "2" (CharAt var34 750)))
(assert (= ")" (CharAt var60 589)))
(assert (= "U" (CharAt var18 802)))
(assert (= "j" (CharAt var19 345)))
(assert (= "|" (CharAt var1 978)))
(assert (= "t" (CharAt var15 702)))
(assert (= "-" (CharAt var0 738)))
(assert (= "e" (CharAt var28 890)))
(assert (= "i" (CharAt var22 259)))
(assert (= "P" (CharAt var42 706)))
(assert (= "D" (CharAt var30 884)))
(assert (= "}" (CharAt var32 868)))
(assert (= "\"" (CharAt var8 719)))
(assert (= "{" (CharAt var0 695)))
(assert (= "m" (CharAt var32 655)))
(assert (= "c" (CharAt var16 710)))
(assert (= "Z" (CharAt var41 603)))
(assert (= "s" (CharAt var53 103)))
(assert (= "*" (CharAt var16 768)))
(assert (= "D" (CharAt var45 386)))
(assert (= "." (CharAt var33 180)))
(assert (= "1" (CharAt var42 553)))
(assert (= "k" (CharAt var26 424)))
(assert (= "6" (CharAt var3 163)))
(assert (= "+" (CharAt var8 872)))
(assert (= "h" (CharAt var5 252)))
(assert (= "H" (CharAt var34 855)))
(assert (= "0" (CharAt var2 637)))
(assert (= "L" (CharAt var0 497)))
(assert (= "Z" (CharAt var9 648)))
(assert (= "|" (CharAt var43 245)))
(assert (= ")" (CharAt var39 604)))
(assert (= "8" (CharAt var31 795)))
(assert (= "'" (CharAt var53 477)))
(assert (= "l" (CharAt var19 12)))
(assert (= "$" (CharAt var14 49)))
(assert (= "2" (CharAt var53 868)))
(assert (= "W" (CharAt var42 862)))
(assert (= "+" (CharAt var2 445)))
(assert (= "~" (CharAt var15 212)))
(assert (= "a" (CharAt var45 424)))
(assert (= "u" (CharAt var37 70)))
(assert (= "8" (CharAt var21 131)))
(assert (= "}" (CharAt var11 361)))
(assert (= "r" (CharAt var39 1)))
(assert (= "a" (CharAt var46 108)))
(assert (= "|" (CharAt var1 783)))
(assert (= "n" (CharAt var28 545)))
(assert (= "-" (CharAt var45 117)))
(assert (= "9" (CharAt var13 959)))
(assert (= "0" (CharAt var4 186)))
(assert (= "K" (CharAt var13 873)))
(assert (= "J" (CharAt var8 199)))
(assert (= "m" (CharAt var0 961)))
(assert (= "y" (CharAt var48 427)))
(assert (= "z" (CharAt var51 994)))
(assert (= "0" (CharAt var37 824)))
(assert (= ":" (CharAt var27 263)))
(assert (= "w" (CharAt var45 342)))
(assert (= ">" (CharAt var15 394)))
(assert (= "O" (CharAt var33 200)))
(assert (= "l" (CharAt var36 671)))
(assert (= "\\" (CharAt var17 406)))
(assert (= "p" (CharAt var29 985)))
(assert (= ">" (CharAt var51 998)))
(assert (= "~" (CharAt var59 228)))
(assert (= "i" (CharAt var49 360)))
(assert (= "T" (CharAt var33 894)))
(assert (= "*" (CharAt var45 91)))
(assert (= "U" (CharAt var50 131)))
(assert (= "W" (CharAt var51 722)))
(assert (= "l" (CharAt var40 218)))
(assert (= "H" (CharAt var29 55)))
(assert (= "W" (CharAt var51 116)))
(assert (= "U" (CharAt var12 503)))
(assert (= "\"" (CharAt var28 208)))
(assert (= "c" (CharAt var23 65)))
(assert (= "[" (CharAt var12 253)))
(assert (= "V" (CharAt var37 508)))
(assert (= "[" (CharAt var34 853)))
(assert (= "'" (CharAt var27 174)))
(assert (= "d" (CharAt var25 396)))
(assert (= "C" (CharAt var33 474)))
(assert (= "R" (CharAt var12 177)))
(assert (= "5" (CharAt var10 362)))
(assert (= "Y" (CharAt var54 89)))
(assert (= "#" (CharAt var5 257)))
(assert (= ")" (CharAt var4 341)))
(assert (= "R" (CharAt var25 834)))
(assert (= "M" (CharAt var1 212)))
(assert (= "-" (CharAt var12 322)))
(assert (= "K" (CharAt var31 969)))
(assert (= "]" (CharAt var28 683)))
(assert (= ">" (CharAt var45 895)))
(assert (= "3" (CharAt var2 281)))
(assert (= "U" (CharAt var17 333)))
(assert (= "m" (CharAt var14 133)))
(assert (= "1" (CharAt var48 235)))
(assert (= "a" (CharAt var50 273)))
(assert (= "j" (CharAt var0 766)))
(assert (= "~" (CharAt var4 730)))
(assert (= "&" (CharAt var3 312)))
(assert (= "$" (CharAt var30 988)))
(assert (= "D" (CharAt var37 154)))
(assert (= "I" (CharAt var0 629)))
(assert (= "k" (CharAt var11 726)))
(assert (= "0" (CharAt var8 414)))
(assert (= "`" (CharAt var47 313)))
(assert (= "R" (CharAt var51 114)))
(assert (= "~" (CharAt var39 62)))
(assert (= "^" (CharAt var4 25)))
(assert (= "[" (CharAt var56 925)))
(assert (= "e" (CharAt var25 486)))
(assert (= "t" (CharAt var21 577)))
(assert (= "m" (CharAt var29 710)))
(assert (= "m" (CharAt var29 914)))
(assert (= "w" (CharAt var14 67)))
(assert (= ")" (CharAt var60 613)))
(assert (= "j" (CharAt var29 596)))
(assert (= "f" (CharAt var24 179)))
(assert (= "Y" (CharAt var60 992)))
(assert (= "0" (CharAt var38 840)))
(assert (= "z" (CharAt var9 823)))
(assert (= "x" (CharAt var17 141)))
(assert (= "(" (CharAt var23 175)))
(assert (= "c" (CharAt var31 596)))
(assert (= "V" (CharAt var0 57)))
(assert (= "^" (CharAt var10 780)))
(assert (= "x" (CharAt var59 55)))
(assert (= "\\" (CharAt var39 301)))
(assert (= "_" (CharAt var14 891)))
(assert (= "D" (CharAt var33 821)))
(assert (= "o" (CharAt var33 583)))
(assert (= "I" (CharAt var24 36)))
(assert (= "W" (CharAt var8 17)))
(assert (= "e" (CharAt var38 851)))
(assert (= "w" (CharAt var58 978)))
(assert (= "Q" (CharAt var44 81)))
(assert (= "}" (CharAt var4 657)))
(assert (= "{" (CharAt var23 997)))
(assert (= "?" (CharAt var27 36)))
(assert (= "g" (CharAt var50 91)))
(assert (= "I" (CharAt var5 42)))
(assert (= "z" (CharAt var4 885)))
(assert (= "L" (CharAt var35 272)))
(assert (= "I" (CharAt var10 473)))
(assert (= "M" (CharAt var56 143)))
(assert (= "U" (CharAt var7 743)))
(assert (= "c" (CharAt var27 45)))
(assert (= "o" (CharAt var12 315)))
(assert (= "z" (CharAt var4 929)))
(assert (= "#" (CharAt var14 840)))
(assert (= "!" (CharAt var15 659)))
(assert (= "f" (CharAt var23 999)))
(assert (= "5" (CharAt var34 695)))
(assert (= "I" (CharAt var10 313)))
(assert (= "R" (CharAt var15 273)))
(assert (= "M" (CharAt var26 454)))
(assert (= "D" (CharAt var25 941)))
(assert (= ";" (CharAt var54 820)))
(assert (= "n" (CharAt var6 261)))
(assert (= "F" (CharAt var54 488)))
(assert (= "{" (CharAt var2 705)))
(assert (= "e" (CharAt var17 755)))
(assert (= "o" (CharAt var44 480)))
(assert (= "@" (CharAt var0 17)))
(assert (= "P" (CharAt var56 821)))
(assert (= "u" (CharAt var58 164)))
(assert (= "-" (CharAt var38 947)))
(assert (= "f" (CharAt var15 564)))
(assert (= "J" (CharAt var58 914)))
(assert (= "," (CharAt var7 551)))
(assert (= "z" (CharAt var41 841)))
(assert (= "m" (CharAt var0 559)))
(assert (= ">" (CharAt var44 766)))
(assert (= "[" (CharAt var27 876)))
(assert (= "*" (CharAt var19 478)))
(assert (= "F" (CharAt var17 894)))
(assert (= "b" (CharAt var47 947)))
(assert (= "l" (CharAt var60 630)))
(assert (= "^" (CharAt var12 585)))
(assert (= "B" (CharAt var20 124)))
(assert (= "\"" (CharAt var19 508)))
(assert (= "y" (CharAt var38 719)))
(assert (= "U" (CharAt var25 264)))
(assert (= "n" (CharAt var53 676)))
(assert (= "C" (CharAt var32 189)))
(assert (= "z" (CharAt var49 552)))
(assert (= "g" (CharAt var24 231)))
(assert (= "+" (CharAt var46 152)))
(assert (= "&" (CharAt var28 999)))
(assert (= "K" (CharAt var6 136)))
(assert (= "w" (CharAt var29 891)))
(assert (= "<" (CharAt var33 818)))
(assert (= "9" (CharAt var43 198)))
(assert (= "'" (CharAt var3 530)))
(assert (= "@" (CharAt var51 628)))
(assert (= "[" (CharAt var32 136)))
(assert (= "E" (CharAt var57 703)))
(assert (= "D" (CharAt var1 26)))
(assert (= "J" (CharAt var58 264)))
(assert (= "h" (CharAt var55 180)))
(assert (= "Q" (CharAt var56 24)))
(assert (= "G" (CharAt var41 761)))
(assert (= "e" (CharAt var58 792)))
(assert (= "o" (CharAt var57 106)))
(assert (= "/" (CharAt var15 262)))
(assert (= "j" (CharAt var37 816)))
(assert (= "`" (CharAt var37 643)))
(assert (= "A" (CharAt var41 56)))
(assert (= "z" (CharAt var31 648)))
(assert (= "`" (CharAt var49 79)))
(assert (= "I" (CharAt var24 689)))
(assert (= "*" (CharAt var38 62)))
(assert (= "~" (CharAt var49 769)))
(assert (= "[" (CharAt var12 655)))
(assert (= "T" (CharAt var21 672)))
(assert (= "z" (CharAt var34 793)))
(assert (= "B" (CharAt var24 992)))
(assert (= "o" (CharAt var54 134)))
(assert (= "0" (CharAt var16 489)))
(assert (= "b" (CharAt var42 505)))
(assert (= "k" (CharAt var15 412)))
(assert (= "k" (CharAt var59 706)))
(assert (= "P" (CharAt var11 42)))
(assert (= "K" (CharAt var26 607)))
(assert (= "l" (CharAt var29 400)))
(assert (= ")" (CharAt var1 561)))
(assert (= "Q" (CharAt var58 999)))
(assert (= "H" (CharAt var19 146)))
(assert (= "2" (CharAt var3 535)))
(assert (= "b" (CharAt var38 65)))
(assert (= "@" (CharAt var13 646)))
(assert (= "t" (CharAt var36 755)))
(assert (= "d" (CharAt var29 28)))
(assert (= "F" (CharAt var31 985)))
(assert (= "q" (CharAt var23 143)))
(assert (= "`" (CharAt var50 363)))
(assert (= "&" (CharAt var21 464)))
(assert (= "0" (CharAt var2 665)))
(assert (= "[" (CharAt var43 477)))
(assert (= "M" (CharAt var52 968)))
(check-sat)
(get-model)